logs/757.log

Welcome to IBM(R) ILOG(R) CPLEX(R) Interactive Optimizer Community Edition 12.9.0.0
  with Simplex, Mixed Integer & Barrier Optimizers
5725-A06 5725-A29 5724-Y48 5724-Y49 5724-Y54 5724-Y55 5655-Y21
Copyright IBM Corp. 1988, 2019.  All Rights Reserved.

Type 'help' for a list of available commands.
Type 'help' followed by a command name for more
information on commands.

CPLEX> Problem 'files/757.lp' read.
Read time = 0.00 sec. (0.05 ticks)
CPLEX> Tried aggregator 2 times.
MIP Presolve eliminated 119 rows and 70 columns.
MIP Presolve modified 48 coefficients.
Aggregator did 245 substitutions.
Reduced MIP has 54 rows, 246 columns, and 495 nonzeros.
Reduced MIP has 245 binaries, 0 generals, 0 SOSs, and 0 indicators.
Presolve time = 0.00 sec. (0.94 ticks)
Found incumbent of value 196.000000 after 0.00 sec. (1.08 ticks)
Probing time = 0.00 sec. (0.13 ticks)
Cover probing fixed 0 vars, tightened 6 bounds.
Tried aggregator 1 time.
Reduced MIP has 54 rows, 246 columns, and 495 nonzeros.
Reduced MIP has 245 binaries, 0 generals, 0 SOSs, and 0 indicators.
Presolve time = 0.00 sec. (0.43 ticks)
Probing time = 0.00 sec. (0.04 ticks)
MIP emphasis: balance optimality and feasibility.
MIP search method: dynamic search.
Parallel mode: deterministic, using up to 4 threads.
Root relaxation solution time = 0.00 sec. (0.64 ticks)

        Nodes                                         Cuts/
   Node  Left     Objective  IInf  Best Integer    Best Bound    ItCnt     Gap

*     0+    0                          196.0000        7.0000            96.43%
      0     0       78.4000     7      196.0000       78.4000      121   60.00%
*     0+    0                           83.0000       78.4000             5.54%
      0     0       78.4000    11       83.0000       Cuts: 9      135    5.54%
*     0+    0                           79.0000       78.4000             0.76%
      0     0       78.4000     9       79.0000       Cuts: 9      143    0.76%
      0     0       78.4000    14       79.0000      Cuts: 12      150    0.76%
*     0+    0                           78.5000       78.4000             0.13%
      0     0        cutoff             78.5000       78.5000      150    0.00%
Elapsed time = 0.03 sec. (11.93 ticks, tree = 0.01 MB, solutions = 4)

Root node processing (before b&c):
  Real time             =    0.03 sec. (11.96 ticks)
Parallel b&c, 4 threads:
  Real time             =    0.00 sec. (0.00 ticks)
  Sync time (average)   =    0.00 sec.
  Wait time (average)   =    0.00 sec.
                          ------------
Total (root+branch&cut) =    0.03 sec. (11.96 ticks)

Solution pool: 4 solutions saved.

MIP - Integer optimal solution:  Objective =  7.8500000000e+01
Solution time =    0.03 sec.  Iterations = 150  Nodes = 0
Deterministic time = 11.96 ticks  (361.94 ticks/sec)

CPLEX> Incumbent solution
Variable Name           Solution Value
r                            78.500000
x131                          1.000000
x151                          1.000000
x142                          1.500000
x152                          1.500000
x113                          2.000000
x153                          2.000000
x114                          2.500000
x154                          2.500000
x125                          3.000000
x155                          3.000000
x126                          3.500000
x156                          3.500000
x127                          4.000000
x157                          4.000000
x221                          1.500000
x251                          1.500000
x222                          2.000000
x252                          2.000000
x213                          2.500000
x253                          2.500000
x214                          3.000000
x254                          3.000000
x225                          3.500000
x255                          3.500000
x226                          4.000000
x256                          4.000000
x217                          4.500000
x237                          4.500000
x311                          2.000000
x351                          2.000000
x312                          2.500000
x352                          2.500000
x323                          3.000000
x333                          3.000000
x324                          3.500000
x354                          3.500000
x325                          4.000000
x355                          4.000000
x336                          4.500000
x346                          4.500000
x317                          5.000000
x337                          5.000000
x411                          2.500000
x451                          2.500000
x412                          3.000000
x422                          3.000000
x423                          3.500000
x453                          3.500000
x424                          4.000000
x454                          4.000000
x415                          4.500000
x435                          4.500000
x416                          5.000000
x436                          5.000000
x427                          5.500000
x447                          5.500000
x531                          3.000000
x551                          3.000000
x522                          3.500000
x552                          3.500000
x523                          4.000000
x553                          4.000000
x514                          4.500000
x554                          4.500000
x515                          5.000000
x535                          5.000000
x516                          5.500000
x546                          5.500000
x537                          6.000000
x547                          6.000000
x641                          3.500000
x651                          3.500000
x612                          4.000000
x622                          4.000000
x623                          4.500000
x643                          4.500000
x614                          5.000000
x624                          5.000000
x615                          5.500000
x645                          5.500000
x636                          6.000000
x646                          6.000000
x637                          6.500000
x647                          6.500000
x721                          4.000000
x751                          4.000000
x712                          4.500000
x742                          4.500000
x723                          5.000000
x733                          5.000000
x714                          5.500000
x744                          5.500000
x735                          6.000000
x745                          6.000000
x736                          6.500000
x746                          6.500000
x737                          7.000000
x747                          7.000000
c11                           5.000000
c12                          11.000000
c13                           1.000000
c14                           2.000000
c15                          18.000000
c21                          10.000000
c22                          11.000000
c23                           5.000000
c25                          17.000000
c31                          10.000000
c32                          11.000000
c33                          13.000000
c34                           5.000000
c35                          12.000000
c41                          15.000000
c42                          16.000000
c43                          10.000000
c44                           6.000000
c45                          10.000000
c51                          15.000000
c52                           8.000000
c53                          14.000000
c54                          12.000000
c55                          15.000000
c61                          15.000000
c62                          14.000000
c63                          13.000000
c64                          26.000000
c65                           4.000000
c71                          10.000000
c72                           9.000000
c73                          25.000000
c74                          30.000000
c75                           4.000000
d11                           5.000000
d21                           6.000000
d31                           4.000000
d41                           4.000000
d51                          18.000000
d12                          14.000000
d22                          13.000000
d42                           6.000000
d52                          10.000000
d13                           5.000000
d23                          20.000000
d33                           8.000000
d43                           5.000000
d53                          12.000000
d14                          21.000000
d24                          13.000000
d44                           6.000000
d54                          18.000000
d15                          15.000000
d25                          11.000000
d35                          16.000000
d45                          12.000000
d55                          11.000000
d16                          11.000000
d26                           8.000000
d36                          22.000000
d46                          23.000000
d56                           8.000000
d17                          10.000000
d27                          10.000000
d37                          29.000000
d47                          25.000000
d57                           4.000000
u131                          1.000000
u151                          1.000000
u142                          1.000000
u152                          1.000000
u113                          1.000000
u153                          1.000000
u114                          1.000000
u154                          1.000000
u125                          1.000000
u155                          1.000000
u126                          1.000000
u156                          1.000000
u127                          1.000000
u157                          1.000000
u221                          1.000000
u251                          1.000000
u222                          1.000000
u252                          1.000000
u213                          1.000000
u253                          1.000000
u214                          1.000000
u254                          1.000000
u225                          1.000000
u255                          1.000000
u226                          1.000000
u256                          1.000000
u217                          1.000000
u237                          1.000000
u311                          1.000000
u351                          1.000000
u312                          1.000000
u352                          1.000000
u323                          1.000000
u333                          1.000000
u324                          1.000000
u354                          1.000000
u325                          1.000000
u355                          1.000000
u336                          1.000000
u346                          1.000000
u317                          1.000000
u337                          1.000000
u411                          1.000000
u451                          1.000000
u412                          1.000000
u422                          1.000000
u423                          1.000000
u453                          1.000000
u424                          1.000000
u454                          1.000000
u415                          1.000000
u435                          1.000000
u416                          1.000000
u436                          1.000000
u427                          1.000000
u447                          1.000000
u531                          1.000000
u551                          1.000000
u522                          1.000000
u552                          1.000000
u523                          1.000000
u553                          1.000000
u514                          1.000000
u554                          1.000000
u515                          1.000000
u535                          1.000000
u516                          1.000000
u546                          1.000000
u537                          1.000000
u547                          1.000000
u641                          1.000000
u651                          1.000000
u612                          1.000000
u622                          1.000000
u623                          1.000000
u643                          1.000000
u614                          1.000000
u624                          1.000000
u615                          1.000000
u645                          1.000000
u636                          1.000000
u646                          1.000000
u637                          1.000000
u647                          1.000000
u721                          1.000000
u751                          1.000000
u712                          1.000000
u742                          1.000000
u723                          1.000000
u733                          1.000000
u714                          1.000000
u744                          1.000000
u735                          1.000000
u745                          1.000000
u736                          1.000000
u746                          1.000000
u737                          1.000000
u747                          1.000000
All other variables in the range 1-561 are 0.
CPLEX> 